  463   316   2.30  45000.0  45000.0  325.0   18.0   63.0  14000.0
  482   329   5.70  45000.0  45000.0  325.0   18.0   63.0  27910.0
  449   336   0.80  45000.0  45000.0  325.0   18.0   63.0  14000.0
  468   349   7.00  45000.0  45000.0  325.0   18.0   63.0  27910.0
  435   356   1.70  45000.0  45000.0  325.0   18.0   63.0  14000.0
  454   369   3.10  45000.0  45000.0  325.0   18.0   63.0  27910.0
  421   376   4.10  45000.0  45000.0  325.0   18.0   63.0  14000.0
  440   389   0.10  45000.0  45000.0  325.0   18.0   63.0  27910.0
