  296   496   1.60 200000.0 120000.0  335.0   12.0   90.0   3500.0
  315   505   4.60 200000.0 120000.0  335.0   12.0   90.0  11820.0
  334   514   3.60 200000.0 120000.0  335.0   12.0   90.0  20130.0
  285   520   0.00 200000.0 120000.0  335.0   12.0   90.0   3500.0
  304   529   3.40 200000.0 120000.0  335.0   12.0   90.0  11820.0
  323   538   3.10 200000.0 120000.0  335.0   12.0   90.0  20130.0
  273   545   2.10 200000.0 120000.0  335.0   12.0   90.0   3500.0
  293   554   1.20 200000.0 120000.0  335.0   12.0   90.0  11820.0
  312   563   0.60 200000.0 120000.0  335.0   12.0   90.0  20130.0
  262   569   0.70 200000.0 120000.0  335.0   12.0   90.0   3500.0
  281   578   0.70 200000.0 120000.0  335.0   12.0   90.0  11820.0
  300   587   0.00 200000.0 120000.0  335.0   12.0   90.0  20130.0
